c Circuit-CNF generated by TG-PRO v1.0 (c) Huan Chen and Joao Marques-Silva
p cnf 241 590
1 2 0
-1 -2 0
3 4 0
-3 -4 0
5 6 0
-5 -6 0
7 8 0
-7 -8 0
9 10 0
-9 -10 0
11 12 0
-11 -12 0
-13 14 0
-13 15 0
13 -14 -15 0
-16 17 0
-16 18 0
16 -17 -18 0
-19 -20 0
-19 -21 0
19 20 21 0
-22 -23 0
-22 -24 0
22 23 24 0
-25 -26 0
-25 -27 0
25 26 27 0
28 29 0
28 30 0
-28 -29 -30 0
-31 -32 0
-31 -33 0
31 32 33 0
-34 -35 0
-34 -36 0
34 35 36 0
37 38 0
-37 -38 0
-39 -40 0
-39 -41 0
39 40 41 0
-42 -43 0
-42 -41 0
42 43 41 0
-44 -45 0
-44 -41 0
44 45 41 0
-46 -47 0
-46 -41 0
46 47 41 0
-48 -49 0
-48 -50 0
48 49 50 0
-51 -52 0
-51 -50 0
51 52 50 0
-53 -54 0
-53 -50 0
53 54 50 0
-55 -56 0
-55 -50 0
55 56 50 0
-57 -58 0
-57 -59 0
57 58 59 0
-60 -61 0
-60 -59 0
60 61 59 0
-62 -63 0
-62 -59 0
62 63 59 0
-64 -65 0
-64 -59 0
64 65 59 0
66 67 0
-66 -67 0
68 66 0
-68 -66 0
69 70 0
69 71 0
-69 -70 -71 0
15 69 0
-15 -69 0
72 73 0
-72 -73 0
74 75 0
-74 -75 0
14 74 0
-14 -74 0
76 77 0
-76 -77 0
78 76 0
-78 -76 0
79 80 0
79 81 0
-79 -80 -81 0
18 79 0
-18 -79 0
82 83 0
-82 -83 0
17 74 0
-17 -74 0
4 84 0
-4 -84 0
10 85 0
-10 -85 0
85 86 0
-85 -86 0
6 87 0
-6 -87 0
87 88 0
-87 -88 0
12 89 0
-12 -89 0
2 90 0
-2 -90 0
8 91 0
-8 -91 0
92 93 0
92 94 0
-92 -93 -94 0
38 92 0
-38 -92 0
95 92 0
-95 -92 0
-50 -96 0
-50 -97 0
50 96 97 0
98 50 0
-98 -50 0
99 100 0
-99 -100 0
101 102 0
-101 -102 0
103 104 0
-103 -104 0
105 106 0
-105 -106 0
107 98 0
-107 -98 0
97 108 0
-97 -108 0
109 110 0
-109 -110 0
111 112 0
-111 -112 0
113 114 0
-113 -114 0
-115 -59 0
-115 -73 0
115 59 73 0
116 115 0
-116 -115 0
117 118 0
-117 -118 0
119 117 0
-119 -117 0
120 121 0
-120 -121 0
122 123 0
-122 -123 0
124 125 0
-124 -125 0
126 118 0
-126 -118 0
127 126 0
-127 -126 0
128 100 0
-128 -100 0
129 102 0
-129 -102 0
130 104 0
-130 -104 0
21 106 0
-21 -106 0
131 83 0
-131 -83 0
132 133 0
-132 -133 0
134 74 0
-134 -74 0
67 135 0
-67 -135 0
77 136 0
-77 -136 0
75 137 0
-75 -137 0
138 139 0
-138 -139 0
140 138 0
-140 -138 0
-141 133 0
-141 134 0
141 -133 -134 0
-142 102 0
-142 134 0
142 -102 -134 0
-143 144 0
-143 134 0
143 -144 -134 0
-33 145 0
-33 134 0
33 -145 -134 0
146 147 0
146 106 0
-146 -147 -106 0
-36 146 0
-36 133 0
36 -146 -133 0
148 93 0
148 149 0
-148 -93 -149 0
-23 95 0
-23 148 0
23 -95 -148 0
-24 150 0
-24 109 0
24 -150 -109 0
151 152 0
151 153 0
-151 -152 -153 0
-26 95 0
-26 151 0
26 -95 -151 0
-27 154 0
-27 109 0
27 -154 -109 0
70 -68 0
70 -72 0
-70 68 72 0
71 -66 0
71 -73 0
-71 66 73 0
80 -78 0
80 -82 0
-80 78 82 0
81 -76 0
81 -83 0
-81 76 83 0
-155 -156 0
-155 -105 0
155 156 105 0
157 -155 0
157 -100 0
-157 155 100 0
-158 -159 0
-158 -105 0
158 159 105 0
160 -158 0
160 -102 0
-160 158 102 0
-161 -98 0
-161 -105 0
161 98 105 0
162 -161 0
162 -104 0
-162 161 104 0
163 -107 0
163 -106 0
-163 107 106 0
-164 -165 0
-164 -113 0
164 165 113 0
166 -164 0
166 -108 0
-166 164 108 0
-167 -168 0
-167 -113 0
167 168 113 0
169 -167 0
169 -110 0
-169 167 110 0
-170 -115 0
-170 -113 0
170 115 113 0
171 -170 0
171 -112 0
-171 170 112 0
172 -116 0
172 -114 0
-172 116 114 0
-173 -174 0
-173 -117 0
173 174 117 0
175 -173 0
175 -121 0
-175 173 121 0
-176 -124 0
-176 -117 0
176 124 117 0
177 -176 0
177 -123 0
-177 176 123 0
178 -119 0
178 -125 0
-178 119 125 0
179 130 0
179 106 0
-179 -130 -106 0
180 -181 0
180 -129 0
-180 181 129 0
182 -129 0
182 -74 0
-182 129 74 0
183 -132 0
183 -74 0
-183 132 74 0
153 -184 0
153 -74 0
-153 184 74 0
185 -186 0
185 -74 0
-185 186 74 0
187 -188 0
187 -74 0
-187 188 74 0
189 -128 0
189 -131 0
-189 128 131 0
190 -191 0
190 -131 0
-190 191 131 0
192 -193 0
192 -133 0
-192 193 133 0
30 -194 0
30 -133 0
-30 194 133 0
195 155 0
195 100 0
-195 -155 -100 0
196 157 0
196 195 0
-196 -157 -195 0
197 158 0
197 102 0
-197 -158 -102 0
198 160 0
198 197 0
-198 -160 -197 0
199 161 0
199 104 0
-199 -161 -104 0
200 162 0
200 199 0
-200 -162 -199 0
201 107 0
201 106 0
-201 -107 -106 0
202 163 0
202 201 0
-202 -163 -201 0
203 164 0
203 108 0
-203 -164 -108 0
204 166 0
204 203 0
-204 -166 -203 0
205 167 0
205 110 0
-205 -167 -110 0
206 169 0
206 205 0
-206 -169 -205 0
207 170 0
207 112 0
-207 -170 -112 0
208 171 0
208 207 0
-208 -171 -207 0
209 116 0
209 114 0
-209 -116 -114 0
210 172 0
210 209 0
-210 -172 -209 0
211 173 0
211 121 0
-211 -173 -121 0
212 175 0
212 211 0
-212 -175 -211 0
213 176 0
213 123 0
-213 -176 -123 0
214 177 0
214 213 0
-214 -177 -213 0
215 119 0
215 125 0
-215 -119 -125 0
216 178 0
216 215 0
-216 -178 -215 0
-217 -74 0
-217 -132 0
217 74 132 0
93 217 0
93 180 0
-93 -217 -180 0
218 185 0
218 187 0
-218 -185 -187 0
20 219 0
20 104 0
-20 -219 -104 0
149 220 0
149 21 0
-149 -220 -21 0
-221 -222 0
-221 -104 0
221 222 104 0
94 221 0
94 21 0
-94 -221 -21 0
35 223 0
35 190 0
-35 -223 -190 0
-59 -224 0
-59 -120 0
59 224 120 0
-225 -226 0
-225 -106 0
225 226 106 0
-41 -227 0
-41 -99 0
41 227 99 0
-228 -229 0
-228 -114 0
228 229 114 0
-224 -230 0
-224 -118 0
224 230 118 0
-29 134 0
-29 192 0
29 -134 -192 0
231 -141 0
231 -142 0
-231 141 142 0
32 -231 0
32 -143 0
-32 231 143 0
40 -74 0
40 -196 0
-40 74 196 0
43 -74 0
43 -198 0
-43 74 198 0
45 -74 0
45 -200 0
-45 74 200 0
47 -74 0
47 -202 0
-47 74 202 0
49 -74 0
49 -204 0
-49 74 204 0
52 -74 0
52 -206 0
-52 74 206 0
54 -74 0
54 -208 0
-54 74 208 0
56 -74 0
56 -210 0
-56 74 210 0
58 -74 0
58 -212 0
-58 74 212 0
61 -74 0
61 -214 0
-61 74 214 0
63 -74 0
63 -216 0
-63 74 216 0
65 -74 0
65 -127 0
-65 74 127 0
96 -228 0
96 -115 0
-96 228 115 0
-144 106 0
-144 104 0
144 -106 -104 0
-145 21 0
-145 100 0
145 -21 -100 0
-232 131 0
-232 128 0
232 -131 -128 0
-147 232 0
-147 130 0
147 -232 -130 0
-150 92 0
-150 148 0
150 -92 -148 0
-152 182 0
-152 183 0
152 -182 -183 0
-154 92 0
-154 151 0
154 -92 -151 0
233 -98 0
233 -101 0
-233 98 101 0
156 -233 0
156 -103 0
-156 233 103 0
159 -98 0
159 -103 0
-159 98 103 0
234 -115 0
234 -109 0
-234 115 109 0
165 -234 0
165 -111 0
-165 234 111 0
168 -115 0
168 -111 0
-168 115 111 0
174 -122 0
174 -124 0
-174 122 124 0
235 -179 0
235 -83 0
-235 179 83 0
181 -235 0
181 -100 0
-181 235 100 0
236 -106 0
236 -104 0
-236 106 104 0
184 -236 0
184 -128 0
-184 236 128 0
186 -102 0
186 -128 0
-186 102 128 0
237 -129 0
237 -100 0
-237 129 100 0
188 -237 0
188 -131 0
-188 237 131 0
191 -106 0
191 -104 0
-191 106 104 0
193 -102 0
193 -100 0
-193 102 100 0
238 -21 0
238 -104 0
-238 21 104 0
194 -238 0
194 -102 0
-194 238 102 0
-239 134 0
-239 132 0
239 -134 -132 0
-219 239 0
-219 129 0
219 -239 -129 0
-220 218 0
-220 130 0
220 -218 -130 0
240 -74 0
240 -131 0
-240 74 131 0
222 -240 0
222 -129 0
-222 240 129 0
-241 134 0
-241 102 0
241 -134 -102 0
-223 241 0
-223 189 0
223 -241 -189 0
226 -102 0
226 -104 0
-226 102 104 0
227 -225 0
227 -98 0
-227 225 98 0
229 -110 0
229 -112 0
-229 110 112 0
230 -123 0
230 -125 0
-230 123 125 0
